p cnf 120 280
1 2 3 0
4 5 6 0
7 8 9 0
10 11 12 0
13 14 15 0
16 17 18 0
19 20 21 0
22 23 24 0
25 26 27 0
28 29 30 0
31 32 33 0
34 35 36 0
37 38 39 0
40 41 42 0
43 44 45 0
46 47 48 0
49 50 51 0
52 53 54 0
55 56 57 0
58 59 60 0
61 62 63 0
64 65 66 0
67 68 69 0
70 71 72 0
73 74 75 0
76 77 78 0
79 80 81 0
82 83 84 0
85 86 87 0
88 89 90 0
91 92 93 0
94 95 96 0
97 98 99 0
100 101 102 0
103 104 105 0
106 107 108 0
109 110 111 0
112 113 114 0
115 116 117 0
118 119 120 0
-1 -2 0
-1 -3 0
-2 -3 0
-4 -5 0
-4 -6 0
-5 -6 0
-7 -8 0
-7 -9 0
-8 -9 0
-10 -11 0
-10 -12 0
-11 -12 0
-13 -14 0
-13 -15 0
-14 -15 0
-16 -17 0
-16 -18 0
-17 -18 0
-19 -20 0
-19 -21 0
-20 -21 0
-22 -23 0
-22 -24 0
-23 -24 0
-25 -26 0
-25 -27 0
-26 -27 0
-28 -29 0
-28 -30 0
-29 -30 0
-31 -32 0
-31 -33 0
-32 -33 0
-34 -35 0
-34 -36 0
-35 -36 0
-37 -38 0
-37 -39 0
-38 -39 0
-40 -41 0
-40 -42 0
-41 -42 0
-43 -44 0
-43 -45 0
-44 -45 0
-46 -47 0
-46 -48 0
-47 -48 0
-49 -50 0
-49 -51 0
-50 -51 0
-52 -53 0
-52 -54 0
-53 -54 0
-55 -56 0
-55 -57 0
-56 -57 0
-58 -59 0
-58 -60 0
-59 -60 0
-61 -62 0
-61 -63 0
-62 -63 0
-64 -65 0
-64 -66 0
-65 -66 0
-67 -68 0
-67 -69 0
-68 -69 0
-70 -71 0
-70 -72 0
-71 -72 0
-73 -74 0
-73 -75 0
-74 -75 0
-76 -77 0
-76 -78 0
-77 -78 0
-79 -80 0
-79 -81 0
-80 -81 0
-82 -83 0
-82 -84 0
-83 -84 0
-85 -86 0
-85 -87 0
-86 -87 0
-88 -89 0
-88 -90 0
-89 -90 0
-91 -92 0
-91 -93 0
-92 -93 0
-94 -95 0
-94 -96 0
-95 -96 0
-97 -98 0
-97 -99 0
-98 -99 0
-100 -101 0
-100 -102 0
-101 -102 0
-103 -104 0
-103 -105 0
-104 -105 0
-106 -107 0
-106 -108 0
-107 -108 0
-109 -110 0
-109 -111 0
-110 -111 0
-112 -113 0
-112 -114 0
-113 -114 0
-115 -116 0
-115 -117 0
-116 -117 0
-118 -119 0
-118 -120 0
-119 -120 0
-1 -37 0
-4 -31 0
-7 -28 0
-10 -70 0
-13 -73 0
-16 -55 0
-19 -115 0
-22 -34 0
-25 -76 0
-28 -7 0
-31 -4 0
-34 -22 0
-37 -1 0
-40 -85 0
-43 -109 0
-46 -88 0
-49 -100 0
-52 -61 0
-55 -16 0
-58 -118 0
-61 -52 0
-64 -67 0
-67 -64 0
-70 -10 0
-73 -13 0
-76 -25 0
-79 -103 0
-82 -91 0
-85 -40 0
-88 -46 0
-91 -82 0
-94 -106 0
-97 -112 0
-100 -49 0
-103 -79 0
-106 -94 0
-109 -43 0
-112 -97 0
-115 -19 0
-118 -58 0
-2 -38 0
-5 -32 0
-8 -29 0
-11 -71 0
-14 -74 0
-17 -56 0
-20 -116 0
-23 -35 0
-26 -77 0
-29 -8 0
-32 -5 0
-35 -23 0
-38 -2 0
-41 -86 0
-44 -110 0
-47 -89 0
-50 -101 0
-53 -62 0
-56 -17 0
-59 -119 0
-62 -53 0
-65 -68 0
-68 -65 0
-71 -11 0
-74 -14 0
-77 -26 0
-80 -104 0
-83 -92 0
-86 -41 0
-89 -47 0
-92 -83 0
-95 -107 0
-98 -113 0
-101 -50 0
-104 -80 0
-107 -95 0
-110 -44 0
-113 -98 0
-116 -20 0
-119 -59 0
-3 -39 0
-6 -33 0
-9 -30 0
-12 -72 0
-15 -75 0
-18 -57 0
-21 -117 0
-24 -36 0
-27 -78 0
-30 -9 0
-33 -6 0
-36 -24 0
-39 -3 0
-42 -87 0
-45 -111 0
-48 -90 0
-51 -102 0
-54 -63 0
-57 -18 0
-60 -120 0
-63 -54 0
-66 -69 0
-69 -66 0
-72 -12 0
-75 -15 0
-78 -27 0
-81 -105 0
-84 -93 0
-87 -42 0
-90 -48 0
-93 -84 0
-96 -108 0
-99 -114 0
-102 -51 0
-105 -81 0
-108 -96 0
-111 -45 0
-114 -99 0
-117 -21 0
-120 -60 0
